152362.46,57.25,70.99
167450.41,52.09,64.6
174314.96,50.04,62.05
155787.72,55.99,69.43
196359.7,44.42,55.09
184655.7,47.24,58.58
168033.22,51.91,64.37
168114.31,51.89,64.34
165995.92,52.55,65.16
162514.27,53.67,66.56
157169.99,55.5,68.82
179666.78,48.55,60.21
185030.29,47.14,58.46
182369.45,47.83,59.31
156995.63,55.56,68.9
161095.67,54.15,67.14
172455.46,50.58,62.72
123446.08,70.66,87.62
161993.69,53.85,66.77
152075.27,57.36,71.13
